job_count = 24 ;
duration = [|22, 10, 3|25, 8, 7|29, 3, 2|19, 3, 5|22, 6, 1|25, 13, 8|12, 3, 1|21, 19, 2|8, 6, 4|21, 3, 5|25, 15, 6|28, 12, 4|4, 5, 9|10, 18, 2|20, 14, 2|3, 12, 4|23, 19, 5|9, 14, 6|21, 2, 7|16, 9, 8|10, 19, 3|23, 12, 7|16, 12, 1|23, 9, 8|] ;
machine_count = 3 ;
cost = [|12, 35, 30|19, 32, 43|12, 37, 46|19, 27, 37|14, 30, 35|12, 26, 40|16, 31, 54|11, 34, 57|16, 36, 59|15, 35, 43|17, 37, 42|10, 22, 42|11, 20, 47|18, 33, 33|15, 25, 33|19, 32, 31|19, 35, 39|11, 38, 44|18, 39, 51|15, 32, 46|17, 34, 57|14, 36, 30|12, 27, 31|15, 28, 53|] ;
deadline = [53, 53, 53, 53, 53, 53, 53, 53, 53, 53, 53, 53, 53, 53, 53, 53, 53, 53, 53, 53, 53, 53, 53, 53] ;
release = [0, 0, 0, 0, 0, 0, 0, 0, 0, 0, 0, 0, 0, 0, 0, 0, 0, 0, 0, 0, 0, 0, 0, 0] ;
resource = [|7, 7, 7|6, 6, 6|9, 9, 9|1, 1, 1|5, 5, 5|5, 5, 5|3, 3, 3|7, 7, 7|7, 7, 7|2, 2, 2|9, 9, 9|3, 3, 3|7, 7, 7|7, 7, 7|3, 3, 3|9, 9, 9|7, 7, 7|1, 1, 1|3, 3, 3|1, 1, 1|6, 6, 6|1, 1, 1|9, 9, 9|7, 7, 7|] ;
capacities = [10, 10, 10] ;
